(set-info :smt-lib-version 2.6)
(set-logic QF_NIA)
(set-info :source |
Generated by: Cristina Borralleras, Daniel Larraz, Albert Oliveras, Enric Rodriguez-Carbonell, Albert Rubio
Generated on: 2017-04-27
Generator: VeryMax
Application: Termination proving
Target solver: barcelogic
|)
(set-info :license "https://creativecommons.org/licenses/by/4.0/")
(set-info :category "industrial")
(set-info :status sat)
(declare-fun Nl7main_x1 () Int)
(declare-fun Nl7main_n1 () Int)
(declare-fun Nl7main_b1 () Int)
(declare-fun Nl7main_t1 () Int)
(declare-fun Nl7main_x2 () Int)
(declare-fun Nl7main_n2 () Int)
(declare-fun Nl7main_b2 () Int)
(declare-fun Nl7main_t2 () Int)
(declare-fun Nl7main_x3 () Int)
(declare-fun Nl7main_n3 () Int)
(declare-fun Nl7main_b3 () Int)
(declare-fun Nl7main_t3 () Int)
(declare-fun lam0n0 () Int)
(declare-fun lam0n1 () Int)
(declare-fun lam0n2 () Int)
(declare-fun lam0n3 () Int)
(declare-fun lam0n4 () Int)
(declare-fun Nl7CT1 () Int)
(declare-fun Nl7CT2 () Int)
(declare-fun Nl7CT3 () Int)
(declare-fun lam1n0 () Int)
(declare-fun lam1n1 () Int)
(declare-fun lam1n2 () Int)
(declare-fun lam1n3 () Int)
(declare-fun lam1n4 () Int)
(declare-fun lam2n0 () Int)
(declare-fun lam2n1 () Int)
(declare-fun lam2n2 () Int)
(declare-fun lam2n3 () Int)
(declare-fun lam2n4 () Int)
(declare-fun lam3n0 () Int)
(declare-fun lam3n1 () Int)
(declare-fun lam3n2 () Int)
(declare-fun lam3n3 () Int)
(declare-fun lam3n4 () Int)
(declare-fun lam4n0 () Int)
(declare-fun lam4n1 () Int)
(declare-fun lam4n2 () Int)
(declare-fun lam4n3 () Int)
(declare-fun lam4n4 () Int)
(declare-fun lam5n0 () Int)
(declare-fun lam5n1 () Int)
(declare-fun lam5n2 () Int)
(declare-fun lam5n3 () Int)
(declare-fun lam5n4 () Int)
(declare-fun lam6n0 () Int)
(declare-fun lam6n1 () Int)
(declare-fun lam6n2 () Int)
(declare-fun lam6n3 () Int)
(declare-fun lam6n4 () Int)
(declare-fun undef8 () Int)
(declare-fun main_x () Int)
(declare-fun undef6 () Int)
(declare-fun main_n () Int)
(declare-fun undef7 () Int)
(declare-fun main_b () Int)
(declare-fun lam10n0 () Int)
(declare-fun lam10n1 () Int)
(declare-fun lam10n2 () Int)
(declare-fun lam10n3 () Int)
(declare-fun lam10n4 () Int)
(declare-fun RFN1_CT () Int)
(declare-fun RFN1_main_x () Int)
(declare-fun RFN1_main_n () Int)
(declare-fun RFN1_main_b () Int)
(declare-fun RFN1_main_t () Int)
(declare-fun lam8n0 () Int)
(declare-fun lam8n1 () Int)
(declare-fun lam8n2 () Int)
(declare-fun lam8n3 () Int)
(declare-fun lam8n4 () Int)
(declare-fun lam9n0 () Int)
(declare-fun lam9n1 () Int)
(declare-fun lam9n2 () Int)
(declare-fun lam9n3 () Int)
(declare-fun lam9n4 () Int)
(declare-fun lam7n0 () Int)
(declare-fun lam7n1 () Int)
(declare-fun lam7n2 () Int)
(declare-fun lam7n3 () Int)
(declare-fun lam7n4 () Int)
(assert ( and ( <= ( - 1 ) Nl7main_x1 ) ( <= Nl7main_x1 1 ) ( <= ( - 1 ) Nl7main_n1 ) ( <= Nl7main_n1 1 ) ( <= ( - 1 ) Nl7main_b1 ) ( <= Nl7main_b1 1 ) ( <= ( - 1 ) Nl7main_t1 ) ( <= Nl7main_t1 1 ) ( <= ( - 1 ) Nl7main_x2 ) ( <= Nl7main_x2 1 ) ( <= ( - 1 ) Nl7main_n2 ) ( <= Nl7main_n2 1 ) ( <= ( - 1 ) Nl7main_b2 ) ( <= Nl7main_b2 1 ) ( <= ( - 1 ) Nl7main_t2 ) ( <= Nl7main_t2 1 ) ( <= ( - 1 ) Nl7main_x3 ) ( <= Nl7main_x3 1 ) ( <= ( - 1 ) Nl7main_n3 ) ( <= Nl7main_n3 1 ) ( <= ( - 1 ) Nl7main_b3 ) ( <= Nl7main_b3 1 ) ( <= ( - 1 ) Nl7main_t3 ) ( <= Nl7main_t3 1 ) ))
(assert ( or ( and ( >= lam0n0 0 ) ( >= lam0n1 0 ) ( >= lam0n2 0 ) ( >= lam0n3 0 ) ( >= lam0n4 0 ) ( > ( + ( * Nl7CT1 lam0n2 ) ( * Nl7CT2 lam0n3 ) ( * Nl7CT3 lam0n4 ) ( - 1 ) ) 0 ) ( = ( + ( * 1 lam0n0 ) ( * Nl7main_x1 lam0n2 ) ( * Nl7main_x2 lam0n3 ) ( * Nl7main_x3 lam0n4 ) ) 0 ) ( = ( + ( * ( - 1 ) lam0n0 ) ( * Nl7main_n1 lam0n2 ) ( * Nl7main_n2 lam0n3 ) ( * Nl7main_n3 lam0n4 ) ) 0 ) ( = ( + ( * 1 lam0n1 ) ( * Nl7main_b1 lam0n2 ) ( * Nl7main_b2 lam0n3 ) ( * Nl7main_b3 lam0n4 ) ) 0 ) ( = ( + ( * Nl7main_t1 lam0n2 ) ( * Nl7main_t2 lam0n3 ) ( * Nl7main_t3 lam0n4 ) ) 0 ) ) ( and ( >= lam1n0 0 ) ( >= lam1n1 0 ) ( >= lam1n2 0 ) ( >= lam1n3 0 ) ( >= lam1n4 0 ) ( > ( + ( * Nl7CT1 lam1n2 ) ( * Nl7CT2 lam1n3 ) ( * Nl7CT3 lam1n4 ) ( - 1 ( + Nl7CT1 ( * Nl7main_x1 0 ) ) ) ) 0 ) ( = ( + ( * 1 lam1n0 ) ( * Nl7main_x1 lam1n2 ) ( * Nl7main_x2 lam1n3 ) ( * Nl7main_x3 lam1n4 ) ( - ( + 0 ( * Nl7main_x1 1 ) ) ) ) 0 ) ( = ( + ( * ( - 1 ) lam1n0 ) ( * Nl7main_n1 lam1n2 ) ( * Nl7main_n2 lam1n3 ) ( * Nl7main_n3 lam1n4 ) ( - ( + 0 Nl7main_n1 ) ) ) 0 ) ( = ( + ( * 1 lam1n1 ) ( * Nl7main_b1 lam1n2 ) ( * Nl7main_b2 lam1n3 ) ( * Nl7main_b3 lam1n4 ) ( - ( + 0 Nl7main_b1 ) ) ) 0 ) ( = ( + ( * Nl7main_t1 lam1n2 ) ( * Nl7main_t2 lam1n3 ) ( * Nl7main_t3 lam1n4 ) ( - ( + ( + 0 ( * Nl7main_x1 ( - 1 ) ) ) Nl7main_t1 ) ) ) 0 ) ) ))
(assert ( or ( and ( >= lam0n0 0 ) ( >= lam0n1 0 ) ( >= lam0n2 0 ) ( >= lam0n3 0 ) ( >= lam0n4 0 ) ( > ( + ( * Nl7CT1 lam0n2 ) ( * Nl7CT2 lam0n3 ) ( * Nl7CT3 lam0n4 ) ( - 1 ) ) 0 ) ( = ( + ( * 1 lam0n0 ) ( * Nl7main_x1 lam0n2 ) ( * Nl7main_x2 lam0n3 ) ( * Nl7main_x3 lam0n4 ) ) 0 ) ( = ( + ( * ( - 1 ) lam0n0 ) ( * Nl7main_n1 lam0n2 ) ( * Nl7main_n2 lam0n3 ) ( * Nl7main_n3 lam0n4 ) ) 0 ) ( = ( + ( * 1 lam0n1 ) ( * Nl7main_b1 lam0n2 ) ( * Nl7main_b2 lam0n3 ) ( * Nl7main_b3 lam0n4 ) ) 0 ) ( = ( + ( * Nl7main_t1 lam0n2 ) ( * Nl7main_t2 lam0n3 ) ( * Nl7main_t3 lam0n4 ) ) 0 ) ) ( and ( >= lam2n0 0 ) ( >= lam2n1 0 ) ( >= lam2n2 0 ) ( >= lam2n3 0 ) ( >= lam2n4 0 ) ( > ( + ( * Nl7CT1 lam2n2 ) ( * Nl7CT2 lam2n3 ) ( * Nl7CT3 lam2n4 ) ( - 1 ( + Nl7CT2 ( * Nl7main_x2 0 ) ) ) ) 0 ) ( = ( + ( * 1 lam2n0 ) ( * Nl7main_x1 lam2n2 ) ( * Nl7main_x2 lam2n3 ) ( * Nl7main_x3 lam2n4 ) ( - ( + 0 ( * Nl7main_x2 1 ) ) ) ) 0 ) ( = ( + ( * ( - 1 ) lam2n0 ) ( * Nl7main_n1 lam2n2 ) ( * Nl7main_n2 lam2n3 ) ( * Nl7main_n3 lam2n4 ) ( - ( + 0 Nl7main_n2 ) ) ) 0 ) ( = ( + ( * 1 lam2n1 ) ( * Nl7main_b1 lam2n2 ) ( * Nl7main_b2 lam2n3 ) ( * Nl7main_b3 lam2n4 ) ( - ( + 0 Nl7main_b2 ) ) ) 0 ) ( = ( + ( * Nl7main_t1 lam2n2 ) ( * Nl7main_t2 lam2n3 ) ( * Nl7main_t3 lam2n4 ) ( - ( + ( + 0 ( * Nl7main_x2 ( - 1 ) ) ) Nl7main_t2 ) ) ) 0 ) ) ))
(assert ( or ( and ( >= lam0n0 0 ) ( >= lam0n1 0 ) ( >= lam0n2 0 ) ( >= lam0n3 0 ) ( >= lam0n4 0 ) ( > ( + ( * Nl7CT1 lam0n2 ) ( * Nl7CT2 lam0n3 ) ( * Nl7CT3 lam0n4 ) ( - 1 ) ) 0 ) ( = ( + ( * 1 lam0n0 ) ( * Nl7main_x1 lam0n2 ) ( * Nl7main_x2 lam0n3 ) ( * Nl7main_x3 lam0n4 ) ) 0 ) ( = ( + ( * ( - 1 ) lam0n0 ) ( * Nl7main_n1 lam0n2 ) ( * Nl7main_n2 lam0n3 ) ( * Nl7main_n3 lam0n4 ) ) 0 ) ( = ( + ( * 1 lam0n1 ) ( * Nl7main_b1 lam0n2 ) ( * Nl7main_b2 lam0n3 ) ( * Nl7main_b3 lam0n4 ) ) 0 ) ( = ( + ( * Nl7main_t1 lam0n2 ) ( * Nl7main_t2 lam0n3 ) ( * Nl7main_t3 lam0n4 ) ) 0 ) ) ( and ( >= lam3n0 0 ) ( >= lam3n1 0 ) ( >= lam3n2 0 ) ( >= lam3n3 0 ) ( >= lam3n4 0 ) ( > ( + ( * Nl7CT1 lam3n2 ) ( * Nl7CT2 lam3n3 ) ( * Nl7CT3 lam3n4 ) ( - 1 ( + Nl7CT3 ( * Nl7main_x3 0 ) ) ) ) 0 ) ( = ( + ( * 1 lam3n0 ) ( * Nl7main_x1 lam3n2 ) ( * Nl7main_x2 lam3n3 ) ( * Nl7main_x3 lam3n4 ) ( - ( + 0 ( * Nl7main_x3 1 ) ) ) ) 0 ) ( = ( + ( * ( - 1 ) lam3n0 ) ( * Nl7main_n1 lam3n2 ) ( * Nl7main_n2 lam3n3 ) ( * Nl7main_n3 lam3n4 ) ( - ( + 0 Nl7main_n3 ) ) ) 0 ) ( = ( + ( * 1 lam3n1 ) ( * Nl7main_b1 lam3n2 ) ( * Nl7main_b2 lam3n3 ) ( * Nl7main_b3 lam3n4 ) ( - ( + 0 Nl7main_b3 ) ) ) 0 ) ( = ( + ( * Nl7main_t1 lam3n2 ) ( * Nl7main_t2 lam3n3 ) ( * Nl7main_t3 lam3n4 ) ( - ( + ( + 0 ( * Nl7main_x3 ( - 1 ) ) ) Nl7main_t3 ) ) ) 0 ) ) ))
(assert ( and ( not ( <= 1 0 ) ) ( <= undef8 0 ) ( = ( + main_x ( * ( - 1 ) undef6 ) ) 0 ) ( = ( + main_n ( * ( - 1 ) undef7 ) ) 0 ) ( = ( + main_b ( * ( - 1 ) undef8 ) ) 0 ) ( <= ( + ( + Nl7CT1 ( * Nl7main_t1 ( - 1 ) ) ) ( * ( + 0 Nl7main_x1 ) main_x ) ( * ( + 0 Nl7main_n1 ) main_n ) ( * ( + 0 Nl7main_b1 ) main_b ) ) 0 ) ( <= ( + ( + Nl7CT2 ( * Nl7main_t2 ( - 1 ) ) ) ( * ( + 0 Nl7main_x2 ) main_x ) ( * ( + 0 Nl7main_n2 ) main_n ) ( * ( + 0 Nl7main_b2 ) main_b ) ) 0 ) ( <= ( + ( + Nl7CT3 ( * Nl7main_t3 ( - 1 ) ) ) ( * ( + 0 Nl7main_x3 ) main_x ) ( * ( + 0 Nl7main_n3 ) main_n ) ( * ( + 0 Nl7main_b3 ) main_b ) ) 0 ) ( <= main_b 0 ) ))
(assert ( or ( and ( and ( >= lam10n0 0 ) ( >= lam10n1 0 ) ( >= lam10n2 0 ) ( >= lam10n3 0 ) ( >= lam10n4 0 ) ( > ( + ( * Nl7CT1 lam10n2 ) ( * Nl7CT2 lam10n3 ) ( * Nl7CT3 lam10n4 ) ( - 1 ( - ( + RFN1_CT ( * RFN1_main_x 0 ) ) RFN1_CT ) ) ) 0 ) ( = ( + ( * 1 lam10n0 ) ( * Nl7main_x1 lam10n2 ) ( * Nl7main_x2 lam10n3 ) ( * Nl7main_x3 lam10n4 ) ( - ( - ( + 0 ( * RFN1_main_x 1 ) ) RFN1_main_x ) ) ) 0 ) ( = ( + ( * ( - 1 ) lam10n0 ) ( * Nl7main_n1 lam10n2 ) ( * Nl7main_n2 lam10n3 ) ( * Nl7main_n3 lam10n4 ) ( - ( - ( + 0 RFN1_main_n ) RFN1_main_n ) ) ) 0 ) ( = ( + ( * 1 lam10n1 ) ( * Nl7main_b1 lam10n2 ) ( * Nl7main_b2 lam10n3 ) ( * Nl7main_b3 lam10n4 ) ( - ( - ( + 0 RFN1_main_b ) RFN1_main_b ) ) ) 0 ) ( = ( + ( * Nl7main_t1 lam10n2 ) ( * Nl7main_t2 lam10n3 ) ( * Nl7main_t3 lam10n4 ) ( - ( - ( + ( + 0 ( * RFN1_main_x ( - 1 ) ) ) RFN1_main_t ) RFN1_main_t ) ) ) 0 ) ) ( and ( and ( >= lam8n0 0 ) ( >= lam8n1 0 ) ( >= lam8n2 0 ) ( >= lam8n3 0 ) ( >= lam8n4 0 ) ( > ( + ( * Nl7CT1 lam8n2 ) ( * Nl7CT2 lam8n3 ) ( * Nl7CT3 lam8n4 ) ( - 1 ( - RFN1_CT ) ) ) 0 ) ( = ( + ( * 1 lam8n0 ) ( * Nl7main_x1 lam8n2 ) ( * Nl7main_x2 lam8n3 ) ( * Nl7main_x3 lam8n4 ) ( - ( - RFN1_main_x ) ) ) 0 ) ( = ( + ( * ( - 1 ) lam8n0 ) ( * Nl7main_n1 lam8n2 ) ( * Nl7main_n2 lam8n3 ) ( * Nl7main_n3 lam8n4 ) ( - ( - RFN1_main_n ) ) ) 0 ) ( = ( + ( * 1 lam8n1 ) ( * Nl7main_b1 lam8n2 ) ( * Nl7main_b2 lam8n3 ) ( * Nl7main_b3 lam8n4 ) ( - ( - RFN1_main_b ) ) ) 0 ) ( = ( + ( * Nl7main_t1 lam8n2 ) ( * Nl7main_t2 lam8n3 ) ( * Nl7main_t3 lam8n4 ) ( - ( - RFN1_main_t ) ) ) 0 ) ) ( and ( >= lam9n0 0 ) ( >= lam9n1 0 ) ( >= lam9n2 0 ) ( >= lam9n3 0 ) ( >= lam9n4 0 ) ( > ( + ( * Nl7CT1 lam9n2 ) ( * Nl7CT2 lam9n3 ) ( * Nl7CT3 lam9n4 ) ( - 1 ( + ( - ( + RFN1_CT ( * RFN1_main_x 0 ) ) RFN1_CT ) 1 ) ) ) 0 ) ( = ( + ( * 1 lam9n0 ) ( * Nl7main_x1 lam9n2 ) ( * Nl7main_x2 lam9n3 ) ( * Nl7main_x3 lam9n4 ) ( - ( - ( + 0 ( * RFN1_main_x 1 ) ) RFN1_main_x ) ) ) 0 ) ( = ( + ( * ( - 1 ) lam9n0 ) ( * Nl7main_n1 lam9n2 ) ( * Nl7main_n2 lam9n3 ) ( * Nl7main_n3 lam9n4 ) ( - ( - ( + 0 RFN1_main_n ) RFN1_main_n ) ) ) 0 ) ( = ( + ( * 1 lam9n1 ) ( * Nl7main_b1 lam9n2 ) ( * Nl7main_b2 lam9n3 ) ( * Nl7main_b3 lam9n4 ) ( - ( - ( + 0 RFN1_main_b ) RFN1_main_b ) ) ) 0 ) ( = ( + ( * Nl7main_t1 lam9n2 ) ( * Nl7main_t2 lam9n3 ) ( * Nl7main_t3 lam9n4 ) ( - ( - ( + ( + 0 ( * RFN1_main_x ( - 1 ) ) ) RFN1_main_t ) RFN1_main_t ) ) ) 0 ) ) ) ) ( and ( >= lam7n0 0 ) ( >= lam7n1 0 ) ( >= lam7n2 0 ) ( >= lam7n3 0 ) ( >= lam7n4 0 ) ( > ( + ( * Nl7CT1 lam7n2 ) ( * Nl7CT2 lam7n3 ) ( * Nl7CT3 lam7n4 ) ( - 1 ) ) 0 ) ( = ( + ( * 1 lam7n0 ) ( * Nl7main_x1 lam7n2 ) ( * Nl7main_x2 lam7n3 ) ( * Nl7main_x3 lam7n4 ) ) 0 ) ( = ( + ( * ( - 1 ) lam7n0 ) ( * Nl7main_n1 lam7n2 ) ( * Nl7main_n2 lam7n3 ) ( * Nl7main_n3 lam7n4 ) ) 0 ) ( = ( + ( * 1 lam7n1 ) ( * Nl7main_b1 lam7n2 ) ( * Nl7main_b2 lam7n3 ) ( * Nl7main_b3 lam7n4 ) ) 0 ) ( = ( + ( * Nl7main_t1 lam7n2 ) ( * Nl7main_t2 lam7n3 ) ( * Nl7main_t3 lam7n4 ) ) 0 ) ) ))
(check-sat)
(exit)
